ITEM: TIMESTEP
0
ITEM: NUMBER OF ATOMS
324
ITEM: BOX BOUNDS pp pp pp
0.0 23.4193766000
0.0 23.4193766000
0.0 23.4193766000
ITEM: ATOMS id type x y z
1 1 15.66000000 5.85000000 19.56000000
2 1 19.56000000 1.95000000 15.66000000
3 1 17.56000000 23.36937660 19.47000000
4 1 21.47000000 3.95000000 15.57000000
5 1 15.61000000 3.90000000 17.63000000
6 1 19.47000000 0.05000000 21.47000000
7 1 15.57000000 3.86000000 21.47000000
8 1 19.56000000 23.36937660 17.56000000
9 1 19.47000000 5.85000000 15.66000000
10 1 15.61000000 1.89000000 19.52000000
11 1 21.47000000 0.05000000 19.56000000
12 1 17.56000000 3.86000000 15.66000000
13 1 0.05000000 13.66000000 3.95000000
14 1 3.95000000 9.76000000 23.36937660
15 1 2.02000000 7.81000000 3.90000000
16 1 5.85000000 11.76000000 0.05000000
17 1 0.05000000 11.76000000 1.95000000
18 1 3.90000000 7.81000000 5.92000000
19 1 23.36937660 11.66000000 5.85000000
20 1 3.95000000 7.85000000 1.95000000
21 1 3.86000000 13.66000000 0.05000000
22 1 0.05000000 9.76000000 3.86000000
23 1 5.85000000 7.85000000 3.95000000
24 1 1.95000000 11.66000000 23.36937660
25 1 15.57000000 21.47000000 19.56000000
26 1 19.52000000 17.63000000 15.61000000
27 1 17.50000000 15.61000000 19.52000000
28 1 21.47000000 19.56000000 15.57000000
29 1 15.57000000 19.56000000 17.56000000
30 1 19.52000000 15.61000000 21.40000000
31 1 15.57000000 19.47000000 21.47000000
32 1 19.47000000 15.66000000 17.56000000
33 1 19.47000000 21.47000000 15.57000000
34 1 15.57000000 17.56000000 19.47000000
35 1 21.47000000 15.66000000 19.47000000
36 1 17.50000000 19.52000000 15.61000000
37 1 15.66000000 13.66000000 3.95000000
38 1 19.56000000 9.76000000 23.36937660
39 1 17.63000000 7.81000000 3.90000000
40 1 21.47000000 11.76000000 0.05000000
41 1 15.57000000 11.76000000 1.95000000
42 1 19.56000000 7.76000000 5.85000000
43 1 15.66000000 11.66000000 5.85000000
44 1 19.56000000 7.85000000 1.95000000
45 1 19.47000000 13.66000000 23.36937660
46 1 15.66000000 9.76000000 3.86000000
47 1 21.53000000 7.81000000 3.90000000
48 1 17.56000000 11.66000000 0.05000000
49 1 7.85000000 21.47000000 19.56000000
50 1 11.71000000 17.50000000 15.61000000
51 1 9.69000000 15.61000000 19.52000000
52 1 13.60000000 19.52000000 15.61000000
53 1 7.85000000 19.56000000 17.56000000
54 1 11.71000000 15.61000000 21.40000000
55 1 7.81000000 19.52000000 21.53000000
56 1 11.66000000 15.57000000 17.56000000
57 1 11.66000000 21.47000000 15.66000000
58 1 7.81000000 17.63000000 19.52000000
59 1 13.66000000 15.57000000 19.47000000
60 1 9.76000000 19.47000000 15.57000000
61 1 0.00000000 5.92000000 11.71000000
62 1 3.90000000 1.89000000 7.81000000
63 1 1.95000000 23.36937660 11.66000000
64 1 5.85000000 3.86000000 7.85000000
65 1 0.00000000 3.90000000 9.82000000
66 1 3.90000000 0.00000000 13.60000000
67 1 0.05000000 3.95000000 13.66000000
68 1 3.95000000 23.36937660 9.76000000
69 1 3.90000000 5.79000000 7.81000000
70 1 0.05000000 1.95000000 11.76000000
71 1 5.92000000 0.00000000 11.71000000
72 1 1.95000000 3.86000000 7.85000000
73 1 23.36937660 21.47000000 11.66000000
74 1 3.86000000 17.56000000 7.85000000
75 1 1.95000000 15.66000000 11.76000000
76 1 5.85000000 19.47000000 7.76000000
77 1 0.00000000 19.52000000 9.69000000
78 1 3.90000000 15.61000000 13.73000000
79 1 0.00000000 19.52000000 13.60000000
80 1 3.90000000 15.61000000 9.82000000
81 1 3.95000000 21.47000000 7.76000000
82 1 23.36937660 17.56000000 11.66000000
83 1 5.85000000 15.57000000 11.76000000
84 1 1.95000000 19.56000000 7.76000000
85 1 7.76000000 5.85000000 11.76000000
86 1 11.76000000 1.95000000 7.85000000
87 1 9.76000000 23.36937660 11.76000000
88 1 13.66000000 3.95000000 7.76000000
89 1 7.85000000 3.95000000 9.76000000
90 1 11.76000000 23.36937660 13.66000000
91 1 7.76000000 3.86000000 13.66000000
92 1 11.71000000 0.00000000 9.82000000
93 1 11.66000000 5.85000000 7.85000000
94 1 7.85000000 1.95000000 11.66000000
95 1 13.73000000 0.00000000 11.71000000
96 1 9.76000000 3.86000000 7.76000000
97 1 7.85000000 13.66000000 3.95000000
98 1 11.71000000 9.69000000 0.00000000
99 1 9.82000000 7.81000000 3.90000000
100 1 13.60000000 11.71000000 0.00000000
101 1 7.85000000 11.76000000 1.95000000
102 1 11.71000000 7.81000000 5.92000000
103 1 7.76000000 11.66000000 5.85000000
104 1 11.76000000 7.76000000 1.95000000
105 1 11.66000000 13.66000000 23.36937660
106 1 7.85000000 9.76000000 3.86000000
107 1 13.66000000 7.85000000 3.95000000
108 1 9.76000000 11.66000000 23.36937660
109 1 15.61000000 5.79000000 11.71000000
110 1 19.52000000 2.02000000 7.81000000
111 1 17.56000000 0.05000000 11.66000000
112 1 21.53000000 3.90000000 7.81000000
113 1 15.61000000 3.90000000 9.69000000
114 1 19.47000000 0.05000000 13.66000000
115 1 15.61000000 3.90000000 13.73000000
116 1 19.56000000 0.05000000 9.76000000
117 1 19.56000000 5.85000000 7.85000000
118 1 15.61000000 2.02000000 11.71000000
119 1 21.47000000 0.05000000 11.76000000
120 1 17.56000000 3.95000000 7.76000000
121 1 15.61000000 13.60000000 19.52000000
122 1 19.47000000 9.76000000 15.57000000
123 1 17.56000000 7.85000000 19.56000000
124 1 21.40000000 11.71000000 15.61000000
125 1 15.66000000 11.66000000 17.56000000
126 1 19.56000000 7.76000000 21.47000000
127 1 15.61000000 11.71000000 21.53000000
128 1 19.47000000 7.85000000 17.56000000
129 1 19.52000000 13.73000000 15.61000000
130 1 15.57000000 9.76000000 19.56000000
131 1 21.47000000 7.85000000 19.47000000
132 1 17.56000000 11.76000000 15.57000000
133 1 15.66000000 21.47000000 11.66000000
134 1 19.47000000 17.56000000 7.76000000
135 1 17.63000000 15.61000000 11.71000000
136 1 21.40000000 19.52000000 7.81000000
137 1 15.66000000 19.47000000 9.76000000
138 1 19.56000000 15.66000000 13.66000000
139 1 15.57000000 19.56000000 13.66000000
140 1 19.52000000 15.61000000 9.69000000
141 1 19.52000000 21.53000000 7.81000000
142 1 15.66000000 17.56000000 11.76000000
143 1 21.47000000 15.57000000 11.66000000
144 1 17.56000000 19.56000000 7.76000000
145 1 0.00000000 13.73000000 19.52000000
146 1 3.86000000 9.76000000 15.66000000
147 1 1.89000000 7.81000000 19.52000000
148 1 5.79000000 11.71000000 15.61000000
149 1 23.36937660 11.76000000 17.56000000
150 1 3.86000000 7.76000000 21.47000000
151 1 23.36937660 11.76000000 21.47000000
152 1 3.90000000 7.81000000 17.63000000
153 1 3.86000000 13.66000000 15.66000000
154 1 0.00000000 9.82000000 19.52000000
155 1 5.85000000 7.76000000 19.56000000
156 1 1.89000000 11.71000000 15.61000000
157 1 7.81000000 21.40000000 11.71000000
158 1 11.66000000 17.56000000 7.85000000
159 1 9.76000000 15.66000000 11.66000000
160 1 13.66000000 19.47000000 7.85000000
161 1 7.81000000 19.52000000 9.69000000
162 1 11.71000000 15.61000000 13.60000000
163 1 7.76000000 19.47000000 13.66000000
164 1 11.76000000 15.57000000 9.76000000
165 1 11.76000000 21.47000000 7.85000000
166 1 7.76000000 17.56000000 11.66000000
167 1 13.73000000 15.61000000 11.71000000
168 1 9.76000000 19.56000000 7.76000000
169 1 0.00000000 21.40000000 3.90000000
170 1 3.95000000 17.56000000 23.36937660
171 1 1.95000000 15.66000000 3.95000000
172 1 5.85000000 19.56000000 0.05000000
173 1 0.00000000 19.52000000 1.89000000
174 1 3.95000000 15.66000000 5.85000000
175 1 23.36937660 19.47000000 5.85000000
176 1 3.86000000 15.66000000 1.95000000
177 1 3.90000000 21.53000000 0.00000000
178 1 23.36937660 17.56000000 3.86000000
179 1 5.85000000 15.57000000 3.86000000
180 1 2.02000000 19.52000000 0.00000000
181 1 0.05000000 5.85000000 3.86000000
182 1 3.90000000 2.02000000 0.00000000
183 1 1.89000000 0.00000000 3.90000000
184 1 5.92000000 3.90000000 0.00000000
185 1 0.05000000 3.86000000 1.95000000
186 1 3.90000000 0.00000000 5.79000000
187 1 0.05000000 3.95000000 5.85000000
188 1 3.86000000 0.05000000 1.95000000
189 1 3.95000000 5.85000000 0.05000000
190 1 23.36937660 1.95000000 3.95000000
191 1 5.85000000 0.05000000 3.86000000
192 1 1.95000000 3.95000000 23.36937660
193 1 7.81000000 13.60000000 19.52000000
194 1 11.66000000 9.76000000 15.57000000
195 1 9.69000000 7.81000000 19.52000000
196 1 13.66000000 11.66000000 15.66000000
197 1 7.81000000 11.71000000 17.50000000
198 1 11.71000000 7.81000000 21.40000000
199 1 7.76000000 11.66000000 21.47000000
200 1 11.66000000 7.85000000 17.56000000
201 1 11.76000000 13.66000000 15.57000000
202 1 7.76000000 9.76000000 19.47000000
203 1 13.66000000 7.76000000 19.47000000
204 1 9.76000000 11.76000000 15.57000000
205 1 7.81000000 5.92000000 3.90000000
206 1 11.66000000 1.95000000 0.05000000
207 1 9.76000000 23.36937660 3.95000000
208 1 13.66000000 3.86000000 0.05000000
209 1 7.81000000 3.90000000 2.02000000
210 1 11.71000000 0.00000000 5.92000000
211 1 7.76000000 3.95000000 5.85000000
212 1 11.71000000 0.00000000 2.02000000
213 1 11.76000000 5.85000000 23.36937660
214 1 7.85000000 1.95000000 3.95000000
215 1 13.66000000 0.05000000 3.95000000
216 1 9.76000000 3.95000000 0.05000000
217 1 15.61000000 5.92000000 3.90000000
218 1 19.56000000 1.95000000 0.05000000
219 1 17.56000000 23.36937660 3.86000000
220 1 21.47000000 3.95000000 0.05000000
221 1 15.66000000 3.95000000 1.95000000
222 1 19.47000000 0.05000000 5.85000000
223 1 15.61000000 3.90000000 5.79000000
224 1 19.56000000 23.36937660 1.95000000
225 1 19.47000000 5.85000000 0.05000000
226 1 15.66000000 1.95000000 3.86000000
227 1 21.47000000 23.36937660 3.95000000
228 1 17.56000000 3.86000000 23.36937660
229 1 15.57000000 21.47000000 3.86000000
230 1 19.47000000 17.56000000 23.36937660
231 1 17.56000000 15.66000000 3.86000000
232 1 21.47000000 19.47000000 23.36937660
233 1 15.66000000 19.47000000 1.95000000
234 1 19.52000000 15.61000000 5.79000000
235 1 15.57000000 19.56000000 5.85000000
236 1 19.52000000 15.61000000 1.89000000
237 1 19.56000000 21.47000000 23.36937660
238 1 15.57000000 17.56000000 3.95000000
239 1 21.47000000 15.57000000 3.86000000
240 1 17.56000000 19.56000000 23.36937660
241 1 0.05000000 13.66000000 11.76000000
242 1 3.86000000 9.76000000 7.85000000
243 1 2.02000000 7.81000000 11.71000000
244 1 5.79000000 11.71000000 7.81000000
245 1 0.05000000 11.76000000 9.76000000
246 1 3.90000000 7.81000000 13.73000000
247 1 23.36937660 11.66000000 13.66000000
248 1 3.95000000 7.76000000 9.76000000
249 1 3.90000000 13.73000000 7.81000000
250 1 0.05000000 9.76000000 11.66000000
251 1 5.85000000 7.85000000 11.76000000
252 1 1.95000000 11.76000000 7.76000000
253 1 15.66000000 13.66000000 11.76000000
254 1 19.47000000 9.76000000 7.76000000
255 1 17.56000000 7.76000000 11.76000000
256 1 21.47000000 11.66000000 7.85000000
257 1 15.57000000 11.76000000 9.76000000
258 1 19.56000000 7.76000000 13.66000000
259 1 15.57000000 11.66000000 13.66000000
260 1 19.47000000 7.85000000 9.76000000
261 1 19.56000000 13.66000000 7.76000000
262 1 15.66000000 9.76000000 11.66000000
263 1 21.47000000 7.85000000 11.66000000
264 1 17.56000000 11.76000000 7.85000000
265 1 7.76000000 21.47000000 3.86000000
266 1 11.71000000 17.50000000 0.00000000
267 1 9.82000000 15.61000000 3.90000000
268 1 13.66000000 19.47000000 0.05000000
269 1 7.85000000 19.47000000 1.95000000
270 1 11.71000000 15.61000000 5.92000000
271 1 7.81000000 19.52000000 5.79000000
272 1 11.76000000 15.57000000 1.95000000
273 1 11.76000000 21.47000000 0.05000000
274 1 7.81000000 17.50000000 3.90000000
275 1 13.66000000 15.57000000 3.95000000
276 1 9.82000000 19.52000000 0.00000000
277 1 23.36937660 5.85000000 19.56000000
278 1 3.90000000 1.89000000 15.61000000
279 1 1.95000000 23.36937660 19.56000000
280 1 5.79000000 3.90000000 15.61000000
281 1 23.36937660 3.95000000 17.56000000
282 1 3.95000000 0.05000000 21.47000000
283 1 23.36937660 3.86000000 21.47000000
284 1 3.86000000 23.36937660 17.56000000
285 1 3.86000000 5.85000000 15.66000000
286 1 0.05000000 1.95000000 19.47000000
287 1 5.85000000 23.36937660 19.47000000
288 1 1.95000000 3.86000000 15.66000000
289 1 23.36937660 21.47000000 19.56000000
290 1 3.90000000 17.63000000 15.61000000
291 1 2.02000000 15.61000000 19.52000000
292 1 5.85000000 19.56000000 15.66000000
293 1 23.36937660 19.56000000 17.56000000
294 1 3.95000000 15.57000000 21.47000000
295 1 0.05000000 19.47000000 21.47000000
296 1 3.95000000 15.66000000 17.56000000
297 1 3.86000000 21.47000000 15.57000000
298 1 0.05000000 17.56000000 19.47000000
299 1 5.92000000 15.61000000 19.52000000
300 1 1.89000000 19.52000000 15.61000000
301 1 7.81000000 5.79000000 19.52000000
302 1 11.66000000 1.95000000 15.57000000
303 1 9.76000000 0.05000000 19.56000000
304 1 13.66000000 3.86000000 15.66000000
305 1 7.81000000 3.90000000 17.50000000
306 1 11.71000000 0.00000000 21.53000000
307 1 7.85000000 3.86000000 21.47000000
308 1 11.66000000 0.05000000 17.56000000
309 1 11.76000000 5.85000000 15.66000000
310 1 7.76000000 1.95000000 19.47000000
311 1 13.60000000 0.00000000 19.52000000
312 1 9.76000000 3.95000000 15.57000000
313 1 7.85000000 13.66000000 11.66000000
314 1 11.66000000 9.76000000 7.85000000
315 1 9.76000000 7.76000000 11.76000000
316 1 13.66000000 11.66000000 7.76000000
317 1 7.76000000 11.66000000 9.76000000
318 1 11.76000000 7.76000000 13.66000000
319 1 7.76000000 11.76000000 13.66000000
320 1 11.71000000 7.81000000 9.82000000
321 1 11.71000000 13.60000000 7.81000000
322 1 7.85000000 9.76000000 11.76000000
323 1 13.73000000 7.81000000 11.71000000
324 1 9.69000000 11.71000000 7.81000000
