ITEM: TIMESTEP
0
ITEM: NUMBER OF ATOMS
136
ITEM: BOX BOUNDS xy xz yz pp pp pp
-6.2106057000 24.8424228000 -6.2106057000
0.0000000000 10.7570846000 0.0000000000
0.0 20.1312910000 0.0000000000
ITEM: ATOMS id type x y z
1 1 12.37000000 7.20000000 8.69000000
2 1 18.63000000 3.53000000 8.62000000
3 1 18.59000000 3.61000000 1.45000000
4 1 12.42000000 7.22000000 1.45000000
5 1 12.42000000 2.87000000 0.00000000
6 1 8.61000000 9.31000000 20.09129100
7 1 16.23000000 9.32000000 20.09129100
8 1 18.68000000 7.96000000 0.04000000
9 1 22.39000000 1.36000000 20.09129100
10 1 14.80000000 1.37000000 -0.00000000
11 1 16.24000000 6.62000000 6.46000000
12 1 10.07000000 4.16000000 6.39000000
13 1 17.26000000 0.05000000 6.45000000
14 1 14.85000000 4.21000000 6.36000000
15 1 8.68000000 6.59000000 6.45000000
16 1 13.84939430 10.70708460 6.39000000
17 1 14.80000000 4.22000000 3.62000000
18 1 8.64000000 6.64000000 3.68000000
19 1 20.00000000 0.05000000 3.62000000
20 1 16.20000000 6.64000000 3.68000000
21 1 9.96000000 4.17000000 3.62000000
22 1 17.20000000 0.05000000 3.68000000
23 1 18.68000000 6.23000000 7.79000000
24 1 20.97000000 2.23000000 7.74000000
25 1 16.25000000 2.26000000 7.82000000
26 1 12.47000000 4.53000000 7.79000000
27 1 10.08000000 8.58000000 7.82000000
28 1 14.73000000 8.50000000 7.87000000
29 1 12.37000000 4.53000000 2.28000000
30 1 10.08000000 8.58000000 2.25000000
31 1 14.76000000 8.57000000 2.25000000
32 1 18.63000000 6.29000000 2.32000000
33 1 20.94000000 2.25000000 2.20000000
34 1 16.25000000 2.26000000 2.25000000
35 1 12.37000000 7.20000000 18.76000000
36 1 18.58000000 3.56000000 18.76000000
37 1 18.58000000 3.56000000 11.44000000
38 1 12.42000000 7.22000000 11.51000000
39 1 12.42000000 2.87000000 10.07000000
40 1 8.61000000 9.31000000 10.11000000
41 1 16.23000000 9.32000000 10.11000000
42 1 18.63000000 7.89000000 10.07000000
43 1 22.39000000 1.36000000 10.02000000
44 1 14.80000000 1.37000000 10.07000000
45 1 16.26000000 6.54000000 16.51000000
46 1 9.96000000 4.17000000 16.51000000
47 1 17.28000000 0.00000000 16.43000000
48 1 14.81000000 4.13000000 16.53000000
49 1 8.56000000 6.59000000 16.45000000
50 1 20.07000000 0.00000000 16.53000000
51 1 14.85000000 4.21000000 13.77000000
52 1 8.59000000 6.54000000 13.69000000
53 1 20.06000000 0.05000000 13.75000000
54 1 16.28000000 6.59000000 13.75000000
55 1 10.07000000 4.16000000 13.75000000
56 1 17.26000000 0.05000000 13.69000000
57 1 18.63000000 6.25000000 17.93000000
58 1 20.94000000 2.31000000 17.85000000
59 1 16.29000000 2.18000000 17.88000000
60 1 12.37000000 4.53000000 17.85000000
61 1 10.08000000 8.52000000 17.81000000
62 1 14.73000000 8.45000000 17.85000000
63 1 12.47000000 4.53000000 12.34000000
64 1 10.08000000 8.52000000 12.39000000
65 1 14.76000000 8.52000000 12.39000000
66 1 18.68000000 6.23000000 12.34000000
67 1 20.94000000 2.25000000 12.26000000
68 1 16.25000000 2.26000000 12.32000000
69 1 -0.05000000 7.15000000 8.62000000
70 1 6.26000000 3.56000000 8.69000000
71 1 6.21000000 3.64000000 1.37000000
72 1 0.00000000 7.12000000 1.37000000
73 1 0.00000000 2.74000000 0.00000000
74 1 -3.76000000 9.40000000 20.09129100
75 1 3.76000000 9.40000000 0.04000000
76 1 6.16000000 7.96000000 0.04000000
77 1 10.02000000 1.44000000 0.04000000
78 1 2.49000000 1.44000000 0.00000000
79 1 3.83000000 6.54000000 6.45000000
80 1 -2.35000000 4.16000000 6.39000000
81 1 -1.37060570 10.70708460 6.45000000
82 1 2.43000000 4.12000000 6.39000000
83 1 -3.78000000 6.55000000 6.36000000
84 1 7.65000000 0.00000000 6.46000000
85 1 2.47000000 4.17000000 3.62000000
86 1 -3.74000000 6.59000000 3.62000000
87 1 7.56000000 0.00000000 3.71000000
88 1 3.78000000 6.64000000 3.68000000
89 1 22.45242280 4.13000000 3.61000000
90 1 -1.43060570 10.70708460 3.68000000
91 1 6.26000000 6.23000000 7.79000000
92 1 8.60000000 2.26000000 7.82000000
93 1 3.95000000 2.22000000 7.79000000
94 1 0.05000000 4.44000000 7.82000000
95 1 -2.38000000 8.50000000 7.82000000
96 1 2.31000000 8.45000000 7.79000000
97 1 0.05000000 4.44000000 2.25000000
98 1 -2.31000000 8.51000000 2.20000000
99 1 2.26000000 8.53000000 2.28000000
100 1 6.21000000 6.29000000 2.32000000
101 1 8.47000000 2.22000000 2.28000000
102 1 3.95000000 2.22000000 2.28000000
103 1 0.04000000 7.15000000 18.69000000
104 1 6.17000000 3.61000000 18.69000000
105 1 6.21000000 3.53000000 11.51000000
106 1 0.00000000 7.12000000 11.44000000
107 1 0.00000000 2.74000000 10.07000000
108 1 -3.81000000 9.31000000 10.11000000
109 1 3.72000000 9.32000000 10.07000000
110 1 6.16000000 7.96000000 10.02000000
111 1 10.05000000 1.37000000 10.07000000
112 1 2.45000000 1.36000000 10.02000000
113 1 3.78000000 6.64000000 16.45000000
114 1 -2.35000000 4.16000000 16.45000000
115 1 -1.43060570 10.70708460 16.45000000
116 1 2.43000000 4.21000000 16.43000000
117 1 21.01242280 6.54000000 16.51000000
118 1 7.58000000 0.05000000 16.51000000
119 1 2.38000000 4.22000000 13.69000000
120 1 -3.78000000 6.64000000 13.75000000
121 1 7.64000000 0.05000000 13.75000000
122 1 3.82000000 6.62000000 13.67000000
123 1 22.37242280 4.17000000 13.69000000
124 1 4.84000000 0.05000000 13.69000000
125 1 6.17000000 6.31000000 17.88000000
126 1 8.52000000 2.25000000 17.93000000
127 1 3.87000000 2.24000000 17.81000000
128 1 0.05000000 4.44000000 17.88000000
129 1 -2.31000000 8.45000000 17.85000000
130 1 2.34000000 8.57000000 17.88000000
131 1 -0.05000000 4.44000000 12.32000000
132 1 -2.26000000 8.54000000 12.34000000
133 1 2.26000000 8.53000000 12.34000000
134 1 6.21000000 6.25000000 12.26000000
135 1 8.60000000 2.26000000 12.32000000
136 1 3.83000000 2.26000000 12.32000000

