ITEM: TIMESTEP
0
ITEM: NUMBER OF ATOMS
192
ITEM: BOX BOUNDS pp pp pp
0.0 22.0521437000
0.0 22.0521437000
0.0 22.0521437000
ITEM: ATOMS id type x y z
1 1 17.33000000 19.28000000 1.11000000
2 1 17.34000000 8.23000000 12.24000000
3 1 6.30000000 8.26000000 1.11000000
4 1 6.37000000 19.32000000 12.20000000
5 1 15.32000000 17.34000000 19.25000000
6 1 15.39000000 6.31000000 8.21000000
7 1 4.30000000 6.32000000 19.25000000
8 1 4.30000000 17.34000000 8.22000000
9 1 19.30000000 15.37000000 21.31000000
10 1 19.34000000 4.30000000 10.22000000
11 1 8.30000000 4.34000000 21.19000000
12 1 8.26000000 15.43000000 10.24000000
13 1 11.83000000 13.83000000 6.73000000
14 1 11.82000000 2.70000000 17.68000000
15 1 0.79000000 2.77000000 6.62000000
16 1 0.74000000 13.78000000 17.71000000
17 1 9.85000000 15.68000000 2.73000000
18 1 9.88000000 4.72000000 13.72000000
19 1 20.88000000 4.78000000 2.75000000
20 1 20.88000000 15.68000000 13.75000000
21 1 13.83000000 17.76000000 4.71000000
22 1 13.84000000 6.66000000 15.74000000
23 1 2.79000000 6.69000000 4.65000000
24 1 2.79000000 17.72000000 15.68000000
25 1 4.72000000 2.82000000 6.66000000
26 1 4.65000000 13.81000000 17.72000000
27 1 15.68000000 13.81000000 6.69000000
28 1 15.74000000 2.80000000 17.76000000
29 1 6.73000000 0.80000000 2.71000000
30 1 6.69000000 11.89000000 13.75000000
31 1 17.76000000 11.83000000 2.71000000
32 1 17.76000000 0.80000000 13.83000000
33 1 2.70000000 20.91000000 4.72000000
34 1 2.80000000 9.81000000 15.74000000
35 1 13.78000000 9.86000000 4.78000000
36 1 13.79000000 20.94000000 15.75000000
37 1 10.22000000 19.34000000 12.24000000
38 1 10.22000000 8.31000000 1.22000000
39 1 21.26000000 8.28000000 12.13000000
40 1 21.25000000 19.34000000 1.22000000
41 1 12.20000000 21.19000000 8.24000000
42 1 12.24000000 10.22000000 19.34000000
43 1 1.22000000 10.22000000 8.31000000
44 1 1.22000000 21.25000000 19.34000000
45 1 8.24000000 1.18000000 10.16000000
46 1 8.24000000 12.20000000 21.19000000
47 1 19.25000000 12.24000000 10.22000000
48 1 19.27000000 1.18000000 21.19000000
49 1 8.33000000 6.31000000 1.14000000
50 1 8.32000000 17.34000000 12.24000000
51 1 19.34000000 17.34000000 1.22000000
52 1 19.36000000 6.31000000 12.17000000
53 1 6.31000000 4.37000000 19.23000000
54 1 6.25000000 15.37000000 8.27000000
55 1 17.33000000 15.43000000 19.31000000
56 1 17.34000000 4.30000000 8.31000000
57 1 4.30000000 8.23000000 21.25000000
58 1 4.40000000 19.28000000 10.24000000
59 1 15.32000000 19.25000000 21.25000000
60 1 15.43000000 8.26000000 10.24000000
61 1 2.73000000 0.86000000 6.69000000
62 1 2.70000000 11.82000000 17.68000000
63 1 13.73000000 11.83000000 6.73000000
64 1 13.83000000 0.80000000 17.76000000
65 1 4.72000000 20.94000000 2.77000000
66 1 4.78000000 9.86000000 13.78000000
67 1 15.75000000 9.92000000 2.77000000
68 1 15.74000000 20.91000000 13.72000000
69 1 6.73000000 2.71000000 4.71000000
70 1 6.68000000 13.78000000 15.80000000
71 1 17.65000000 13.77000000 4.72000000
72 1 17.71000000 2.76000000 15.80000000
73 1 13.78000000 15.80000000 6.68000000
74 1 13.74000000 4.71000000 17.76000000
75 1 2.76000000 4.78000000 6.68000000
76 1 2.74000000 15.75000000 17.65000000
77 1 11.82000000 17.65000000 2.77000000
78 1 11.89000000 6.69000000 13.75000000
79 1 0.80000000 6.73000000 2.71000000
80 1 0.74000000 17.71000000 13.78000000
81 1 9.86000000 13.78000000 4.78000000
82 1 9.81000000 2.80000000 15.74000000
83 1 20.88000000 2.73000000 4.65000000
84 1 20.84000000 13.73000000 15.74000000
85 1 8.27000000 21.31000000 12.20000000
86 1 8.21000000 10.23000000 1.14000000
87 1 19.23000000 10.23000000 12.17000000
88 1 19.23000000 21.26000000 1.14000000
89 1 10.23000000 1.14000000 8.21000000
90 1 10.23000000 12.17000000 19.23000000
91 1 21.26000000 12.13000000 8.28000000
92 1 21.31000000 1.17000000 19.29000000
93 1 12.20000000 19.29000000 10.29000000
94 1 12.20000000 8.27000000 21.31000000
95 1 1.22000000 8.22000000 10.22000000
96 1 1.14000000 19.23000000 21.26000000
97 1 4.78000000 2.75000000 20.88000000
98 1 4.72000000 13.79000000 9.92000000
99 1 15.74000000 13.73000000 20.84000000
100 1 15.74000000 2.70000000 9.88000000
101 1 6.73000000 4.71000000 2.80000000
102 1 6.66000000 15.74000000 13.84000000
103 1 17.68000000 15.74000000 2.82000000
104 1 17.76000000 4.71000000 13.83000000
105 1 2.77000000 6.62000000 0.79000000
106 1 2.71000000 17.76000000 11.83000000
107 1 13.72000000 17.68000000 0.80000000
108 1 13.78000000 6.68000000 11.76000000
109 1 10.29000000 8.27000000 15.37000000
110 1 10.22000000 19.25000000 4.30000000
111 1 21.26000000 19.28000000 15.43000000
112 1 21.26000000 8.26000000 4.40000000
113 1 12.20000000 6.37000000 19.32000000
114 1 12.17000000 17.34000000 8.33000000
115 1 1.22000000 17.34000000 19.25000000
116 1 1.11000000 6.30000000 8.26000000
117 1 8.28000000 4.40000000 17.33000000
118 1 8.21000000 15.39000000 6.31000000
119 1 19.27000000 15.36000000 17.40000000
120 1 19.25000000 4.30000000 6.32000000
121 1 17.34000000 19.25000000 15.32000000
122 1 17.34000000 8.31000000 4.30000000
123 1 6.37000000 8.24000000 15.36000000
124 1 6.25000000 19.29000000 4.34000000
125 1 15.36000000 21.19000000 19.32000000
126 1 15.39000000 10.23000000 8.33000000
127 1 4.30000000 10.22000000 19.34000000
128 1 4.30000000 21.25000000 8.32000000
129 1 19.36000000 1.14000000 17.34000000
130 1 19.34000000 12.24000000 6.32000000
131 1 8.26000000 12.13000000 17.33000000
132 1 8.26000000 1.11000000 6.30000000
133 1 11.83000000 2.80000000 9.81000000
134 1 11.76000000 13.78000000 20.88000000
135 1 0.80000000 13.74000000 9.81000000
136 1 0.79000000 2.74000000 20.94000000
137 1 9.85000000 0.86000000 13.81000000
138 1 9.81000000 11.83000000 2.80000000
139 1 20.88000000 11.76000000 13.78000000
140 1 20.84000000 0.80000000 2.71000000
141 1 13.77000000 20.94000000 11.82000000
142 1 13.81000000 9.85000000 0.86000000
143 1 2.79000000 9.85000000 11.89000000
144 1 2.80000000 20.84000000 0.80000000
145 1 13.75000000 15.68000000 20.88000000
146 1 13.83000000 4.71000000 9.81000000
147 1 2.73000000 4.65000000 20.88000000
148 1 2.70000000 15.74000000 9.88000000
149 1 15.74000000 17.76000000 2.71000000
150 1 15.75000000 6.62000000 13.77000000
151 1 4.78000000 6.68000000 2.76000000
152 1 4.71000000 17.76000000 13.74000000
153 1 17.65000000 13.79000000 0.79000000
154 1 17.72000000 2.73000000 11.89000000
155 1 6.73000000 2.80000000 0.80000000
156 1 6.73000000 13.83000000 11.83000000
157 1 19.32000000 21.19000000 15.36000000
158 1 19.36000000 10.23000000 4.37000000
159 1 8.32000000 10.22000000 15.32000000
160 1 8.30000000 21.19000000 4.34000000
161 1 17.33000000 1.11000000 19.28000000
162 1 17.34000000 12.24000000 8.23000000
163 1 6.25000000 12.20000000 19.30000000
164 1 6.25000000 1.17000000 8.27000000
165 1 15.37000000 19.29000000 17.28000000
166 1 15.43000000 8.28000000 6.30000000
167 1 4.40000000 8.28000000 17.33000000
168 1 4.30000000 19.34000000 6.32000000
169 1 8.31000000 6.32000000 15.32000000
170 1 8.22000000 17.34000000 4.30000000
171 1 19.29000000 17.28000000 15.37000000
172 1 19.23000000 6.31000000 4.37000000
173 1 10.29000000 4.34000000 19.30000000
174 1 10.16000000 15.36000000 8.30000000
175 1 21.26000000 15.39000000 19.36000000
176 1 21.25000000 4.30000000 8.23000000
177 1 12.24000000 8.32000000 17.34000000
178 1 12.13000000 19.28000000 6.30000000
179 1 1.22000000 19.34000000 17.34000000
180 1 1.22000000 8.32000000 6.32000000
181 1 13.74000000 0.80000000 9.81000000
182 1 13.77000000 11.82000000 20.94000000
183 1 2.82000000 11.82000000 9.88000000
184 1 2.82000000 0.80000000 20.91000000
185 1 11.82000000 20.91000000 13.84000000
186 1 11.82000000 9.88000000 2.82000000
187 1 0.80000000 9.81000000 13.83000000
188 1 0.79000000 20.94000000 2.74000000
189 1 9.86000000 2.76000000 11.76000000
190 1 9.81000000 13.74000000 0.80000000
191 1 20.94000000 13.77000000 11.82000000
192 1 20.84000000 2.80000000 0.80000000
