ITEM: TIMESTEP
0
ITEM: NUMBER OF ATOMS
136
ITEM: BOX BOUNDS pp pp pp
0.0 17.1209772000
0.0 17.1209772000
0.0 17.1209772000
ITEM: ATOMS id type x y z
1 1 9.72000000 14.94000000 9.78000000
2 1 11.62000000 6.38000000 3.12000000
3 1 5.50000000 15.96000000 2.10000000
4 1 15.93000000 10.82000000 7.37000000
5 1 16.02000000 15.95000000 2.23000000
6 1 6.33000000 11.74000000 3.11000000
7 1 5.44000000 10.66000000 7.34000000
8 1 13.94000000 7.39000000 2.05000000
9 1 15.05000000 6.42000000 14.98000000
10 1 5.42000000 10.72000000 13.98000000
11 1 7.40000000 2.10000000 14.06000000
12 1 3.76000000 3.69000000 12.25000000
13 1 10.79000000 7.39000000 16.02000000
14 1 10.58000000 7.37000000 5.47000000
15 1 2.18000000 14.06000000 14.00000000
16 1 4.79000000 13.35000000 13.41000000
17 1 7.37000000 7.37000000 2.26000000
18 1 3.69000000 0.59000000 9.08000000
19 1 10.61000000 13.94000000 15.95000000
20 1 3.18000000 15.07000000 9.73000000
21 1 3.06000000 1.16000000 6.46000000
22 1 7.97000000 8.04000000 4.87000000
23 1 15.95000000 2.05000000 5.38000000
24 1 14.98000000 14.92000000 6.42000000
25 1 2.18000000 7.34000000 7.40000000
26 1 3.12000000 14.94000000 3.06000000
27 1 7.39000000 16.02000000 10.79000000
28 1 2.10000000 5.50000000 15.96000000
29 1 11.62000000 1.16000000 15.02000000
30 1 14.00000000 14.06000000 2.18000000
31 1 15.00000000 1.14000000 11.70000000
32 1 16.60000000 16.53000000 4.87000000
33 1 1.22000000 11.68000000 15.02000000
34 1 12.32000000 12.25000000 12.25000000
35 1 14.94000000 3.12000000 3.06000000
36 1 9.07000000 9.13000000 12.34000000
37 1 11.74000000 14.89000000 11.67000000
38 1 1.19000000 15.10000000 11.65000000
39 1 9.76000000 6.54000000 11.65000000
40 1 5.45000000 5.38000000 2.23000000
41 1 5.44000000 2.18000000 5.50000000
42 1 2.05000000 7.39000000 13.94000000
43 1 14.96000000 1.14000000 1.14000000
44 1 1.16000000 1.22000000 14.94000000
45 1 15.02000000 3.06000000 9.72000000
46 1 4.87000000 4.80000000 4.87000000
47 1 6.38000000 9.72000000 1.22000000
48 1 2.08000000 10.70000000 2.14000000
49 1 14.94000000 11.62000000 11.68000000
50 1 16.55000000 8.06000000 13.35000000
51 1 11.65000000 11.65000000 14.86000000
52 1 11.74000000 6.51000000 9.73000000
53 1 7.97000000 13.36000000 16.53000000
54 1 1.10000000 3.11000000 6.51000000
55 1 5.47000000 7.37000000 10.58000000
56 1 7.34000000 10.74000000 15.96000000
57 1 9.08000000 3.69000000 0.59000000
58 1 10.74000000 15.90000000 7.40000000
59 1 7.46000000 14.01000000 2.05000000
60 1 12.34000000 3.78000000 3.71000000
61 1 9.66000000 6.33000000 1.17000000
62 1 3.09000000 11.65000000 6.30000000
63 1 11.74000000 3.11000000 6.33000000
64 1 1.22000000 6.46000000 3.12000000
65 1 15.96000000 5.50000000 2.10000000
66 1 1.14000000 9.70000000 6.40000000
67 1 16.62000000 4.85000000 16.62000000
68 1 9.15000000 0.59000000 3.76000000
69 1 13.98000000 10.72000000 5.42000000
70 1 6.30000000 1.19000000 9.76000000
71 1 2.23000000 5.38000000 5.45000000
72 1 14.89000000 9.73000000 9.66000000
73 1 15.93000000 2.26000000 15.93000000
74 1 6.42000000 6.42000000 6.49000000
75 1 4.87000000 16.53000000 16.60000000
76 1 3.18000000 6.33000000 11.67000000
77 1 14.04000000 15.93000000 10.58000000
78 1 6.42000000 14.98000000 14.92000000
79 1 13.98000000 10.68000000 15.98000000
80 1 10.77000000 2.14000000 2.14000000
81 1 10.64000000 10.70000000 10.70000000
82 1 3.11000000 9.66000000 15.07000000
83 1 9.73000000 11.74000000 6.51000000
84 1 13.36000000 16.53000000 7.97000000
85 1 2.10000000 15.90000000 5.44000000
86 1 3.11000000 3.18000000 14.89000000
87 1 6.51000000 1.17000000 3.18000000
88 1 15.02000000 11.68000000 1.22000000
89 1 13.43000000 8.04000000 16.53000000
90 1 12.25000000 9.15000000 9.08000000
91 1 15.96000000 10.66000000 14.06000000
92 1 1.16000000 6.38000000 9.78000000
93 1 3.69000000 12.32000000 3.69000000
94 1 11.67000000 15.07000000 1.10000000
95 1 14.04000000 2.02000000 7.37000000
96 1 16.62000000 13.41000000 8.06000000
97 1 10.74000000 5.50000000 14.00000000
98 1 7.46000000 5.45000000 10.61000000
99 1 5.38000000 2.05000000 15.95000000
100 1 8.06000000 4.79000000 7.99000000
101 1 2.23000000 16.02000000 15.95000000
102 1 0.50000000 12.27000000 0.50000000
103 1 1.17000000 14.89000000 1.10000000
104 1 8.06000000 16.62000000 13.41000000
105 1 0.50000000 0.57000000 12.34000000
106 1 15.90000000 7.40000000 10.74000000
107 1 7.42000000 2.16000000 7.42000000
108 1 15.98000000 13.98000000 10.68000000
109 1 4.79000000 8.06000000 7.99000000
110 1 10.66000000 15.90000000 14.00000000
111 1 6.40000000 3.14000000 11.70000000
112 1 9.07000000 12.34000000 9.13000000
113 1 6.46000000 9.72000000 11.62000000
114 1 6.46000000 3.06000000 1.16000000
115 1 13.94000000 2.23000000 14.01000000
116 1 12.34000000 0.57000000 0.50000000
117 1 3.76000000 9.15000000 0.59000000
118 1 6.44000000 11.70000000 9.70000000
119 1 9.73000000 3.18000000 15.07000000
120 1 0.50000000 3.78000000 9.13000000
121 1 13.41000000 13.35000000 4.79000000
122 1 9.78000000 1.16000000 6.38000000
123 1 7.42000000 10.68000000 5.42000000
124 1 9.76000000 15.10000000 3.09000000
125 1 10.79000000 14.01000000 5.38000000
126 1 9.70000000 9.70000000 14.96000000
127 1 15.07000000 9.66000000 3.11000000
128 1 0.57000000 9.07000000 3.78000000
129 1 14.01000000 5.38000000 10.79000000
130 1 10.68000000 5.42000000 7.42000000
131 1 2.08000000 2.14000000 10.70000000
132 1 3.18000000 6.51000000 1.17000000
133 1 5.47000000 14.04000000 10.82000000
134 1 2.12000000 13.98000000 7.42000000
135 1 13.36000000 4.87000000 13.43000000
136 1 11.62000000 9.72000000 6.46000000
