ITEM: TIMESTEP
0
ITEM: NUMBER OF ATOMS
46
ITEM: BOX BOUNDS pp pp pp
0.0 12.0034886000
0.0 12.0034886000
0.0 12.0034886000
ITEM: ATOMS id type x y z
1 1 10.64000000 3.78000000 0.00000000
2 1 3.75000000 0.04000000 1.43000000
3 1 0.05000000 3.00000000 6.05000000
4 1 8.18000000 3.79000000 8.14000000
5 1 2.18000000 2.21000000 2.26000000
6 1 0.05000000 9.00000000 5.96000000
7 1 2.21000000 9.82000000 2.13000000
8 1 6.04000000 9.70000000 4.65000000
9 1 7.43000000 6.00000000 9.66000000
10 1 9.79000000 2.26000000 9.82000000
11 1 3.87000000 3.82000000 3.79000000
12 1 2.34000000 4.58000000 6.00000000
13 1 3.82000000 8.26000000 3.79000000
14 1 3.79000000 3.82000000 8.26000000
15 1 8.30000000 11.96348860 1.35000000
16 1 6.04000000 2.25000000 4.57000000
17 1 9.82000000 9.79000000 2.26000000
18 1 5.96000000 9.75000000 7.44000000
19 1 9.78000000 4.64000000 6.00000000
20 1 3.70000000 11.96348860 10.65000000
21 1 5.96000000 2.30000000 7.35000000
22 1 3.79000000 8.14000000 8.18000000
23 1 10.57000000 8.26000000 0.04000000
24 1 9.80000000 9.82000000 9.87000000
25 1 11.96348860 1.43000000 3.75000000
26 1 9.80000000 2.18000000 2.13000000
27 1 9.75000000 7.44000000 6.04000000
28 1 8.94000000 6.00000000 0.00000000
29 1 11.96348860 10.57000000 8.26000000
30 1 8.18000000 8.26000000 8.21000000
31 1 6.05000000 11.95348860 3.00000000
32 1 11.96348860 1.35000000 8.30000000
33 1 2.30000000 7.35000000 5.96000000
34 1 4.57000000 6.04000000 2.25000000
35 1 4.64000000 6.00000000 9.78000000
36 1 2.18000000 2.13000000 9.80000000
37 1 0.04000000 10.65000000 3.70000000
38 1 1.35000000 8.30000000 11.96348860
39 1 1.43000000 3.66000000 0.00000000
40 1 8.26000000 3.79000000 3.82000000
41 1 8.21000000 8.14000000 3.82000000
42 1 7.35000000 5.96000000 2.30000000
43 1 2.18000000 9.79000000 9.75000000
44 1 5.96000000 0.05000000 9.00000000
45 1 2.94000000 6.00000000 0.00000000
46 1 8.26000000 0.04000000 10.57000000
