ITEM: TIMESTEP
0
ITEM: NUMBER OF ATOMS
152
ITEM: BOX BOUNDS pp pp pp
0.0 20.1966000000
0.0 20.1966000000
0.0 7.8912000000
ITEM: ATOMS id type x y z
1 1 0.00000000 -0.00000000 2.03040576
2 1 0.00000000 0.00000000 5.86079424
3 1 0.00000000 10.09830000 4.00320576
4 1 0.00000000 10.09830000 7.83359424
5 1 0.41403030 2.26403886 7.50847680
6 1 0.41403030 7.83426114 2.35552320
7 1 0.72101862 12.35829954 6.32637504
8 1 0.72101862 17.93660046 3.53762496
9 1 0.87653244 4.76437794 2.30107392
10 1 0.87653244 5.33392206 7.56292608
11 1 1.23401226 3.59903412 5.09534784
12 1 1.23401226 6.49926588 4.76865216
13 1 1.52282364 14.78795052 3.64652352
14 1 1.52282364 15.50694948 6.21747648
15 1 1.67025882 13.66098024 0.83804544
16 1 1.67025882 16.63391976 1.13475456
17 1 2.06005320 2.30443206 1.96806528
18 1 2.06005320 7.79386794 0.00473472
19 1 2.25999954 0.72101862 4.35357504
20 1 2.25999954 9.37728138 5.51042496
21 1 2.26403886 10.51233030 1.59007680
22 1 2.26403886 19.78256970 0.38272320
23 1 2.30443206 12.15835320 3.94086528
24 1 2.30443206 18.13654680 5.92313472
25 1 3.52026738 4.36650492 7.59922560
26 1 3.52026738 5.73179508 2.26477440
27 1 3.56268024 1.67025882 6.75644544
28 1 3.56268024 8.42804118 3.10755456
29 1 3.59903412 11.33231226 7.06814784
30 1 3.59903412 18.96258774 2.79585216
31 1 3.80100012 13.99220448 6.26324544
32 1 3.80100012 16.30269552 3.60075456
33 1 3.89390448 3.80100012 4.29044544
34 1 3.89390448 6.29729988 5.57355456
35 1 4.36650492 13.61856738 1.68082560
36 1 4.36650492 16.67633262 0.29197440
37 1 4.68965052 1.52282364 1.67372352
38 1 4.68965052 8.57547636 0.29907648
39 1 4.76437794 10.97483244 4.27387392
40 1 4.76437794 19.32006756 5.59012608
41 1 5.33392206 10.97483244 1.64452608
42 1 5.33392206 19.32006756 0.32827392
43 1 5.40864948 1.52282364 4.24467648
44 1 5.40864948 8.57547636 5.61932352
45 1 5.73179508 13.61856738 4.23757440
46 1 5.73179508 16.67633262 5.62642560
47 1 6.20439552 3.80100012 1.62795456
48 1 6.20439552 6.29729988 0.34484544
49 1 6.29729988 13.99220448 7.54635456
50 1 6.29729988 16.30269552 2.31764544
51 1 6.49926588 11.33231226 6.74145216
52 1 6.49926588 18.96258774 3.12254784
53 1 6.53561976 1.67025882 7.05315456
54 1 6.53561976 8.42804118 2.81084544
55 1 6.57803262 4.36650492 6.21037440
56 1 6.57803262 5.73179508 3.65362560
57 1 7.79386794 12.15835320 1.97753472
58 1 7.79386794 18.13654680 7.88646528
59 1 7.83426114 19.78256970 5.53567680
60 1 7.83426114 10.51233030 4.32832320
61 1 7.83830046 0.72101862 1.56482496
62 1 7.83830046 9.37728138 0.40797504
63 1 8.03824680 2.30443206 3.95033472
64 1 8.03824680 7.79386794 5.91366528
65 1 8.42804118 13.66098024 5.08035456
66 1 8.42804118 16.63391976 4.78364544
67 1 8.57547636 14.78795052 2.27187648
68 1 8.57547636 15.50694948 7.59212352
69 1 8.86428774 3.59903412 0.82305216
70 1 8.86428774 6.49926588 1.14974784
71 1 9.22176756 4.76437794 3.61732608
72 1 9.22176756 5.33392206 6.24667392
73 1 9.37728138 12.35829954 7.48322496
74 1 9.37728138 17.93660046 2.38077504
75 1 9.68426970 2.26403886 6.30112320
76 1 9.68426970 7.83426114 3.56287680
77 1 10.09830000 0.00000000 0.05760576
78 1 10.09830000 -0.00000000 3.88799424
79 1 10.09830000 10.09830000 1.91519424
80 1 10.09830000 10.09830000 5.97600576
81 1 10.51233030 12.36233886 3.56287680
82 1 10.51233030 17.93256114 6.30112320
83 1 10.81931862 7.83830046 7.48322496
84 1 10.81931862 2.25999954 2.38077504
85 1 10.97483244 14.86267794 6.24667392
86 1 10.97483244 15.43222206 3.61732608
87 1 11.33231226 13.69733412 1.14974784
88 1 11.33231226 16.59756588 0.82305216
89 1 11.62112364 4.68965052 7.59212352
90 1 11.62112364 5.40864948 2.27187648
91 1 11.76855882 3.56268024 4.78364544
92 1 11.76855882 6.53561976 5.08035456
93 1 12.15835320 12.40273206 5.91366528
94 1 12.15835320 17.89216794 3.95033472
95 1 12.35829954 10.81931862 0.40797504
96 1 12.35829954 19.47558138 1.56482496
97 1 12.36233886 0.41403030 5.53567680
98 1 12.36233886 9.68426970 4.32832320
99 1 12.40273206 2.06005320 7.88646528
100 1 12.40273206 8.03824680 1.97753472
101 1 13.61856738 14.46480492 3.65362560
102 1 13.61856738 15.83009508 6.21037440
103 1 13.66098024 11.76855882 2.81084544
104 1 13.66098024 18.52634118 7.05315456
105 1 13.69733412 1.23401226 3.12254784
106 1 13.69733412 8.86428774 6.74145216
107 1 13.89930012 6.20439552 7.54635456
108 1 13.89930012 3.89390448 2.31764544
109 1 13.99220448 13.89930012 0.34484544
110 1 13.99220448 16.39559988 1.62795456
111 1 14.46480492 3.52026738 5.62642560
112 1 14.46480492 6.57803262 4.23757440
113 1 14.78795052 11.62112364 5.61932352
114 1 14.78795052 18.67377636 4.24467648
115 1 14.86267794 0.87653244 0.32827392
116 1 14.86267794 9.22176756 1.64452608
117 1 15.43222206 0.87653244 5.59012608
118 1 15.43222206 9.22176756 4.27387392
119 1 15.50694948 11.62112364 0.29907648
120 1 15.50694948 18.67377636 1.67372352
121 1 15.83009508 3.52026738 0.29197440
122 1 15.83009508 6.57803262 1.68082560
123 1 16.30269552 13.89930012 5.57355456
124 1 16.30269552 16.39559988 4.29044544
125 1 16.39559988 3.89390448 3.60075456
126 1 16.39559988 6.20439552 6.26324544
127 1 16.59756588 1.23401226 2.79585216
128 1 16.59756588 8.86428774 7.06814784
129 1 16.63391976 11.76855882 3.10755456
130 1 16.63391976 18.52634118 6.75644544
131 1 16.67633262 14.46480492 2.26477440
132 1 16.67633262 15.83009508 7.59922560
133 1 17.89216794 2.06005320 5.92313472
134 1 17.89216794 8.03824680 3.94086528
135 1 17.93256114 0.41403030 0.38272320
136 1 17.93256114 9.68426970 1.59007680
137 1 17.93660046 10.81931862 5.51042496
138 1 17.93660046 19.47558138 4.35357504
139 1 18.13654680 12.40273206 0.00473472
140 1 18.13654680 17.89216794 1.96806528
141 1 18.52634118 3.56268024 1.13475456
142 1 18.52634118 6.53561976 0.83804544
143 1 18.67377636 4.68965052 6.21747648
144 1 18.67377636 5.40864948 3.64652352
145 1 18.96258774 13.69733412 4.76865216
146 1 18.96258774 16.59756588 5.09534784
147 1 19.32006756 15.43222206 2.30107392
148 1 19.32006756 14.86267794 7.56292608
149 1 19.47558138 2.25999954 3.53762496
150 1 19.47558138 7.83830046 6.32637504
151 1 19.78256970 12.36233886 2.35552320
152 1 19.78256970 17.93256114 7.50847680
